
233
400
   320      1
   319      2
   318      2
   317      3
   316      2
   315      3
   314      4
   313      5
   312      4
   311      2
   310      2
   309      6
   308      3
   307      6
   306      1
   305      3
   303      4
   302      7
   301      6
   300      4
   299      3
   298      3
   297      2
   296      3
   295      3
   294      7
   293      2
   292      2
   291      5
   290      7
   289      2
   288      5
   287      3
   286     13
   285      5
   284      4
   283      2
   282      3
   281      4
   280      2
   279      3
   278      5
   277      4
   276      7
   275      4
   274      2
   273      1
   272      1
   271      3
   270      5
   269      1
   268      2
   267      2
   266      3
   265      3
   264      1
   263      4
   262      1
   260      5
   259      2
   258      3
   257      5
   256      2
   255      3
   254      1
   253      3
   252      1
   251      6
   250      3
   249      1
   248      5
   247      2
   246      4
   245      4
   244      4
   243      3
   242      1
   241      1
   240      2
   239      2
   238      3
   237      1
   236      3
   235      6
   234      5
   233      3
   232      2
   231      1
   230      3
   229      3
   228      3
   227      6
   226      4
   225      6
   224      4
   223      2
   222      3
   221      6
   220      2
   219      1
   218      6
   217      3
   216      2
   215      6
   214      6
   213      1
   212      5
   211      6
   210      1
   209      2
   208      2
   207      1
   205      3
   204      3
   203      1
   202      2
   201      6
   200      3
   199      5
   198      6
   197      5
   196      4
   195      2
   194      2
   193      4
   192      6
   191      3
   190      4
   189      2
   188      1
   187      3
   185      1
   184      2
   183      2
   182      3
   181      2
   180      3
   179      5
   178      1
   177      1
   176      1
   175      1
   174      2
   173      3
   172      3
   171      3
   170      3
   169      2
   168      5
   167      4
   165      2
   164      2
   163      2
   162      2
   161      4
   160      5
   159      2
   158      2
   157      2
   155      3
   154      4
   153      1
   152      1
   151      1
   150      4
   149      2
   148      3
   147      3
   146      1
   145      2
   144      2
   143      3
   142      6
   141      9
   140      3
   139      3
   138      3
   137      2
   136      3
   135      3
   134      1
   133      3
   132      6
   131      4
   130      4
   129      4
   128      4
   127      6
   126      2
   125      2
   124      1
   122      5
   121      8
   120      4
   119      6
   118      6
   117      4
   116      1
   115      4
   114      4
   113      3
   112      1
   111      2
   110      4
   109      2
   108      5
   107      5
   106      4
   105      8
   104      2
   103      3
   102      2
   101      3
    99      2
    98      1
    97      2
    96      3
    95      1
    94      1
    93      2
    92      4
    91      3
    90      4
    89      3
    88      2
    87      4
    86      4
    85      1
    84      1
    83      5
    82      4
    81      6
    80      4




The initial LP solution: time=0.23


File: BPP_750_400_0.2_0.8_3.txt  Instance No. 1
Wed Feb 25 13:47:50 2015

LP solution: lpval=399.5 lpbnd=400

1: 0:1 obj 1\\
1: 1:1 obj 1\\
2: 2:1 obj 1\\
3: 3:1 obj 1\\
2: 4:1 obj 1\\
3: 5:1 232:1 obj 1\\
4: 6:1 226:1 obj 1\\
5: 7:1 231:1 obj 1\\
4: 8:1 obj 1\\
0.3333333333333339: 9:1 223:1 obj 1\\
1.666666666666666: 9:1 229:1 obj 1\\
1: 10:1 obj 1\\
2: 11:1 224:1 obj 1\\
4: 11:1 229:1 obj 1\\
3: 12:1 221:1 obj 1\\
3: 13:1 220:1 obj 1\\
3: 13:1 222:1 obj 1\\
3: 15:1 obj 1\\
4: 16:1 obj 1\\
2: 17:1 219:1 obj 1\\
1: 17:1 227:1 obj 1\\
3.666666666666666: 17:1 230:1 obj 1\\
0.3333333333333335: 17:1 232:1 obj 1\\
1: 18:1 obj 1\\
2: 18:1 213:1 obj 1\\
1: 18:1 214:1 obj 1\\
1: 18:1 217:1 obj 1\\
1: 18:1 218:1 obj 1\\
4: 19:1 obj 1\\
1: 20:1 213:1 obj 1\\
2: 20:1 215:1 obj 1\\
3: 21:1 obj 1\\
2: 22:1 obj 1\\
2.666666666666666: 23:1 223:1 obj 1\\
0.3333333333333339: 23:1 230:1 obj 1\\
1: 24:1 obj 1\\
2: 24:1 211:1 obj 1\\
2: 25:1 207:1 obj 1\\
2: 25:1 209:1 obj 1\\
3: 25:1 216:1 obj 1\\
2: 26:1 obj 1\\
2: 27:1 obj 1\\
5: 28:1 206:1 obj 1\\
4: 29:1 203:1 obj 1\\
2: 29:1 212:1 obj 1\\
1: 29:1 220:1 obj 1\\
1: 31:1 202:1 obj 1\\
3: 31:1 210:1 obj 1\\
1: 31:1 212:1 obj 1\\
3: 32:1 200:1 obj 1\\
5: 33:1 205:1 obj 1\\
8: 33:1 208:1 obj 1\\
3: 34:1 199:1 obj 1\\
1: 34:1 201:1 obj 1\\
1: 34:1 202:1 obj 1\\
3: 35:1 198:1 obj 1\\
1: 35:1 199:1 obj 1\\
2: 36:1 204:1 obj 1\\
2: 37:1 195:1 obj 1\\
1: 37:1 198:1 obj 1\\
4: 38:1 195:1 obj 1\\
3: 40:1 192:1 obj 1\\
5: 41:1 191:1 obj 1\\
4: 42:1 196:1 obj 1\\
5: 43:1 192:1 obj 1\\
2: 43:1 207:1 obj 1\\
4: 44:1 194:1 obj 1\\
1: 45:1 190:1 obj 1\\
1: 45:1 193:1 obj 1\\
1: 46:1 obj 1\\
1: 47:1 obj 1\\
3: 48:1 185:1 obj 1\\
5: 49:1 187:1 obj 1\\
1: 50:1 obj 1\\
1: 51:1 184:1 obj 1\\
1: 51:1 186:1 obj 1\\
2: 52:1 obj 1\\
3: 53:1 184:1 obj 1\\
3: 54:1 179:1 obj 1\\
1: 55:1 obj 1\\
1: 56:1 185:1 obj 1\\
2: 56:1 189:1 obj 1\\
1: 56:1 197:1 obj 1\\
5: 58:1 182:1 obj 1\\
2: 59:1 176:1 obj 1\\
3: 60:1 193:1 obj 1\\
5: 61:1 173:1 obj 1\\
2: 62:1 177:1 obj 1\\
3: 63:1 171:1 obj 1\\
1: 64:1 obj 1\\
3: 65:1 181:1 obj 1\\
1: 66:1 obj 1\\
3: 67:1 166:1 obj 1\\
3: 67:1 174:1 obj 1\\
3: 68:1 167:1 obj 1\\
2: 70:1 172:1 obj 1\\
3: 70:1 173:1 obj 1\\
2: 71:1 183:1 obj 1\\
4: 72:1 172:1 obj 1\\
4: 73:1 160:1 obj 1\\
2: 74:1 164:1 obj 1\\
2: 74:1 169:1 obj 1\\
2: 75:1 158:1 obj 1\\
1: 75:1 186:1 obj 1\\
1: 77:1 obj 1\\
1: 78:1 obj 1\\
1: 78:1 161:1 obj 1\\
2: 79:1 155:1 obj 1\\
2: 80:1 157:1 obj 1\\
1: 80:1 176:1 obj 1\\
1: 81:1 obj 1\\
3: 82:1 178:1 obj 1\\
2: 83:1 151:1 obj 1\\
2: 83:1 153:1 obj 1\\
2: 83:1 154:1 obj 1\\
3: 84:1 159:1 obj 1\\
2: 84:1 164:1 obj 1\\
1: 85:1 163:1 obj 1\\
2: 85:1 170:1 obj 1\\
1: 86:1 obj 1\\
1: 86:1 180:1 obj 1\\
2: 88:1 154:1 obj 1\\
1: 88:1 155:1 obj 1\\
1: 89:1 149:1 obj 1\\
2: 89:1 155:1 obj 1\\
3: 90:1 145:1 obj 1\\
1: 91:1 146:1 obj 1\\
5: 91:1 148:1 obj 1\\
0.3333333333333335: 92:1 143:1 obj 1\\
3: 92:1 149:1 obj 1\\
2.666666666666667: 93:1 143:1 obj 1\\
3: 93:1 144:1 obj 1\\
0.3333333333333334: 93:1 225:2 obj 1\\
2: 94:1 152:1 obj 1\\
1: 94:1 162:1 obj 1\\
1: 94:1 165:1 obj 1\\
0.6666666666666667: 95:1 obj 1\\
1: 95:1 141:1 obj 1\\
1: 96:1 140:1 obj 1\\
2: 96:1 183:1 obj 1\\
4: 97:1 137:1 obj 1\\
1: 98:1 138:1 obj 1\\
1: 100:1 147:1 obj 1\\
2: 100:1 156:1 obj 1\\
2: 100:1 188:1 obj 1\\
3: 101:1 175:1 obj 1\\
1: 102:1 168:1 obj 1\\
2: 103:1 135:1 obj 1\\
1: 103:1 139:1 obj 1\\
2: 103:1 142:1 obj 1\\
1: 103:1 165:1 obj 1\\
2: 104:1 132:1 obj 1\\
2: 104:1 134:1 obj 1\\
2: 104:1 150:1 obj 1\\
2: 106:1 133:1 obj 1\\
2: 106:1 186:1 obj 1\\
3: 107:1 130:1 obj 1\\
1: 107:1 136:1 obj 1\\
1: 114:1 123:1 obj 1\\
2: 115:1 121:1 obj 1\\
4: 116:1 125:1 obj 1\\
1: 117:1 123:1 obj 1\\
1: 117:2 obj 1\\
2: 118:2 obj 1\\
2: 119:2 obj 1\\
1: 120:1 126:1 obj 1\\
2: 120:2 obj 1\\
0.5: 121:2 obj 1\\
1: 122:2 obj 1\\
1: 213:-1 obj 0\\
0.6666666666666661: 229:-1 obj 0\\
1: 100:1 137:1 obj 1\\
2: 116:1 119:1 obj 1\\
1: 118:1 127:1 obj 1\\
1: 87:1 147:1 obj 1\\
2: 30:1 225:1 obj 1\\
2: 39:1 194:1 obj 1\\
1: 57:1 182:1 obj 1\\
1: 69:1 187:1 obj 1\\
1: 76:1 173:1 obj 1\\
1: 1:1 231:1 obj 1\\
1: 10:1 222:1 obj 1\\
1: 14:1 225:1 obj 1\\
2: 97:1 146:1 obj 1\\
1: 102:1 134:1 obj 1\\
3: 112:1 124:1 obj 1\\
2: 113:1 127:1 obj 1\\
1: 105:1 131:1 obj 1\\
2: 107:1 128:1 obj 1\\
2: 109:1 126:1 obj 1\\
2: 110:1 125:1 obj 1\\
1: 111:1 124:1 obj 1\\
1: 113:1 121:1 obj 1\\
0.6666666666666665: 92:1 228:1 232:1 obj 1\\
1: 98:1 136:1 obj 1\\
1: 99:1 136:1 obj 1\\
1: 106:1 129:1 obj 1\\
1: 108:1 127:1 obj 1\\
0.3333333333333333: 95:1 225:1 228:1 obj 1\\






File: BPP_750_400_0.2_0.8_3.txt  Instance No. 1
Wed Feb 25 13:47:50 2015

LP0 Time: 0.23 IPTime: 0.23 The best integer solution (400):

1: 0:1 obj 1\\
1: 1:1 obj 1\\
2: 2:1 obj 1\\
3: 3:1 obj 1\\
2: 4:1 obj 1\\
3: 5:1 232:1 obj 1\\
4: 6:1 226:1 obj 1\\
5: 7:1 231:1 obj 1\\
4: 8:1 obj 1\\
1: 9:1 229:1 obj 1\\
1: 10:1 obj 1\\
2: 11:1 224:1 obj 1\\
4: 11:1 229:1 obj 1\\
3: 12:1 221:1 obj 1\\
3: 13:1 220:1 obj 1\\
3: 13:1 222:1 obj 1\\
3: 15:1 obj 1\\
4: 16:1 obj 1\\
2: 17:1 219:1 obj 1\\
1: 17:1 227:1 obj 1\\
4: 17:1 230:1 obj 1\\
1: 18:1 obj 1\\
2: 18:1 213:1 obj 1\\
1: 18:1 214:1 obj 1\\
1: 18:1 217:1 obj 1\\
1: 18:1 218:1 obj 1\\
4: 19:1 obj 1\\
1: 20:1 213:1 obj 1\\
2: 20:1 215:1 obj 1\\
3: 21:1 obj 1\\
2: 22:1 obj 1\\
3: 23:1 223:1 obj 1\\
1: 24:1 obj 1\\
2: 24:1 211:1 obj 1\\
2: 25:1 207:1 obj 1\\
2: 25:1 209:1 obj 1\\
3: 25:1 216:1 obj 1\\
2: 26:1 obj 1\\
2: 27:1 obj 1\\
5: 28:1 206:1 obj 1\\
4: 29:1 203:1 obj 1\\
2: 29:1 212:1 obj 1\\
1: 29:1 220:1 obj 1\\
1: 31:1 202:1 obj 1\\
3: 31:1 210:1 obj 1\\
1: 31:1 212:1 obj 1\\
3: 32:1 200:1 obj 1\\
5: 33:1 205:1 obj 1\\
8: 33:1 208:1 obj 1\\
3: 34:1 199:1 obj 1\\
1: 34:1 201:1 obj 1\\
1: 34:1 202:1 obj 1\\
3: 35:1 198:1 obj 1\\
1: 35:1 199:1 obj 1\\
2: 36:1 204:1 obj 1\\
2: 37:1 195:1 obj 1\\
1: 37:1 198:1 obj 1\\
4: 38:1 195:1 obj 1\\
3: 40:1 192:1 obj 1\\
5: 41:1 191:1 obj 1\\
4: 42:1 196:1 obj 1\\
5: 43:1 192:1 obj 1\\
2: 43:1 207:1 obj 1\\
4: 44:1 194:1 obj 1\\
1: 45:1 190:1 obj 1\\
1: 45:1 193:1 obj 1\\
1: 46:1 obj 1\\
1: 47:1 obj 1\\
3: 48:1 185:1 obj 1\\
5: 49:1 187:1 obj 1\\
1: 50:1 obj 1\\
1: 51:1 184:1 obj 1\\
1: 51:1 186:1 obj 1\\
2: 52:1 obj 1\\
3: 53:1 184:1 obj 1\\
3: 54:1 179:1 obj 1\\
1: 55:1 obj 1\\
1: 56:1 185:1 obj 1\\
2: 56:1 189:1 obj 1\\
1: 56:1 197:1 obj 1\\
5: 58:1 182:1 obj 1\\
2: 59:1 176:1 obj 1\\
3: 60:1 193:1 obj 1\\
5: 61:1 173:1 obj 1\\
2: 62:1 177:1 obj 1\\
3: 63:1 171:1 obj 1\\
1: 64:1 obj 1\\
3: 65:1 181:1 obj 1\\
1: 66:1 obj 1\\
3: 67:1 166:1 obj 1\\
3: 67:1 174:1 obj 1\\
3: 68:1 167:1 obj 1\\
2: 70:1 172:1 obj 1\\
3: 70:1 173:1 obj 1\\
2: 71:1 183:1 obj 1\\
4: 72:1 172:1 obj 1\\
4: 73:1 160:1 obj 1\\
2: 74:1 164:1 obj 1\\
2: 74:1 169:1 obj 1\\
2: 75:1 158:1 obj 1\\
1: 75:1 186:1 obj 1\\
1: 77:1 obj 1\\
1: 78:1 obj 1\\
1: 78:1 161:1 obj 1\\
2: 79:1 155:1 obj 1\\
2: 80:1 157:1 obj 1\\
1: 80:1 176:1 obj 1\\
1: 81:1 obj 1\\
3: 82:1 178:1 obj 1\\
2: 83:1 151:1 obj 1\\
2: 83:1 153:1 obj 1\\
2: 83:1 154:1 obj 1\\
3: 84:1 159:1 obj 1\\
2: 84:1 164:1 obj 1\\
1: 85:1 163:1 obj 1\\
2: 85:1 170:1 obj 1\\
1: 86:1 obj 1\\
1: 86:1 180:1 obj 1\\
2: 88:1 154:1 obj 1\\
1: 88:1 155:1 obj 1\\
1: 89:1 149:1 obj 1\\
2: 89:1 155:1 obj 1\\
3: 90:1 145:1 obj 1\\
1: 91:1 146:1 obj 1\\
5: 91:1 148:1 obj 1\\
3: 92:1 149:1 obj 1\\
3: 93:1 143:1 obj 1\\
3: 93:1 144:1 obj 1\\
2: 94:1 152:1 obj 1\\
1: 94:1 162:1 obj 1\\
1: 94:1 165:1 obj 1\\
1: 95:1 obj 1\\
1: 95:1 141:1 obj 1\\
1: 96:1 140:1 obj 1\\
2: 96:1 183:1 obj 1\\
4: 97:1 137:1 obj 1\\
1: 98:1 138:1 obj 1\\
1: 100:1 147:1 obj 1\\
2: 100:1 156:1 obj 1\\
2: 100:1 188:1 obj 1\\
3: 101:1 175:1 obj 1\\
1: 102:1 168:1 obj 1\\
2: 103:1 135:1 obj 1\\
1: 103:1 139:1 obj 1\\
2: 103:1 142:1 obj 1\\
1: 103:1 165:1 obj 1\\
2: 104:1 132:1 obj 1\\
2: 104:1 134:1 obj 1\\
2: 104:1 150:1 obj 1\\
2: 106:1 133:1 obj 1\\
2: 106:1 186:1 obj 1\\
3: 107:1 130:1 obj 1\\
1: 107:1 136:1 obj 1\\
1: 114:1 123:1 obj 1\\
2: 115:1 121:1 obj 1\\
4: 116:1 125:1 obj 1\\
1: 117:1 123:1 obj 1\\
1: 117:2 obj 1\\
2: 118:2 obj 1\\
2: 119:2 obj 1\\
1: 120:1 126:1 obj 1\\
2: 120:2 obj 1\\
1: 122:2 obj 1\\
1: 100:1 137:1 obj 1\\
2: 116:1 119:1 obj 1\\
1: 118:1 127:1 obj 1\\
1: 87:1 147:1 obj 1\\
2: 30:1 225:1 obj 1\\
2: 39:1 194:1 obj 1\\
1: 57:1 182:1 obj 1\\
1: 69:1 187:1 obj 1\\
1: 76:1 173:1 obj 1\\
1: 1:1 231:1 obj 1\\
1: 10:1 222:1 obj 1\\
1: 14:1 225:1 obj 1\\
2: 97:1 146:1 obj 1\\
1: 102:1 134:1 obj 1\\
3: 112:1 124:1 obj 1\\
2: 113:1 127:1 obj 1\\
1: 105:1 131:1 obj 1\\
2: 107:1 128:1 obj 1\\
2: 109:1 126:1 obj 1\\
2: 110:1 125:1 obj 1\\
1: 111:1 124:1 obj 1\\
1: 113:1 121:1 obj 1\\
1: 92:1 228:1 232:1 obj 1\\
1: 98:1 136:1 obj 1\\
1: 99:1 136:1 obj 1\\
1: 106:1 129:1 obj 1\\
1: 108:1 127:1 obj 1\\
1: 9:1 225:1 obj 1\\
1: 121:1 obj 1\\



The last LP solution 


File: BPP_750_400_0.2_0.8_3.txt  Instance No. 1
Wed Feb 25 13:47:50 2015

LP solution: lpval=399.5 lpbnd=400

1: 0:1 obj 1\\
1: 1:1 obj 1\\
2: 2:1 obj 1\\
3: 3:1 obj 1\\
2: 4:1 obj 1\\
3: 5:1 232:1 obj 1\\
4: 6:1 226:1 obj 1\\
5: 7:1 231:1 obj 1\\
4: 8:1 obj 1\\
0.3333333333333339: 9:1 223:1 obj 1\\
1.666666666666666: 9:1 229:1 obj 1\\
1: 10:1 obj 1\\
2: 11:1 224:1 obj 1\\
4: 11:1 229:1 obj 1\\
3: 12:1 221:1 obj 1\\
3: 13:1 220:1 obj 1\\
3: 13:1 222:1 obj 1\\
3: 15:1 obj 1\\
4: 16:1 obj 1\\
2: 17:1 219:1 obj 1\\
1: 17:1 227:1 obj 1\\
3.666666666666666: 17:1 230:1 obj 1\\
0.3333333333333335: 17:1 232:1 obj 1\\
1: 18:1 obj 1\\
2: 18:1 213:1 obj 1\\
1: 18:1 214:1 obj 1\\
1: 18:1 217:1 obj 1\\
1: 18:1 218:1 obj 1\\
4: 19:1 obj 1\\
1: 20:1 213:1 obj 1\\
2: 20:1 215:1 obj 1\\
3: 21:1 obj 1\\
2: 22:1 obj 1\\
2.666666666666666: 23:1 223:1 obj 1\\
0.3333333333333339: 23:1 230:1 obj 1\\
1: 24:1 obj 1\\
2: 24:1 211:1 obj 1\\
2: 25:1 207:1 obj 1\\
2: 25:1 209:1 obj 1\\
3: 25:1 216:1 obj 1\\
2: 26:1 obj 1\\
2: 27:1 obj 1\\
5: 28:1 206:1 obj 1\\
4: 29:1 203:1 obj 1\\
2: 29:1 212:1 obj 1\\
1: 29:1 220:1 obj 1\\
1: 31:1 202:1 obj 1\\
3: 31:1 210:1 obj 1\\
1: 31:1 212:1 obj 1\\
3: 32:1 200:1 obj 1\\
5: 33:1 205:1 obj 1\\
8: 33:1 208:1 obj 1\\
3: 34:1 199:1 obj 1\\
1: 34:1 201:1 obj 1\\
1: 34:1 202:1 obj 1\\
3: 35:1 198:1 obj 1\\
1: 35:1 199:1 obj 1\\
2: 36:1 204:1 obj 1\\
2: 37:1 195:1 obj 1\\
1: 37:1 198:1 obj 1\\
4: 38:1 195:1 obj 1\\
3: 40:1 192:1 obj 1\\
5: 41:1 191:1 obj 1\\
4: 42:1 196:1 obj 1\\
5: 43:1 192:1 obj 1\\
2: 43:1 207:1 obj 1\\
4: 44:1 194:1 obj 1\\
1: 45:1 190:1 obj 1\\
1: 45:1 193:1 obj 1\\
1: 46:1 obj 1\\
1: 47:1 obj 1\\
3: 48:1 185:1 obj 1\\
5: 49:1 187:1 obj 1\\
1: 50:1 obj 1\\
1: 51:1 184:1 obj 1\\
1: 51:1 186:1 obj 1\\
2: 52:1 obj 1\\
3: 53:1 184:1 obj 1\\
3: 54:1 179:1 obj 1\\
1: 55:1 obj 1\\
1: 56:1 185:1 obj 1\\
2: 56:1 189:1 obj 1\\
1: 56:1 197:1 obj 1\\
5: 58:1 182:1 obj 1\\
2: 59:1 176:1 obj 1\\
3: 60:1 193:1 obj 1\\
5: 61:1 173:1 obj 1\\
2: 62:1 177:1 obj 1\\
3: 63:1 171:1 obj 1\\
1: 64:1 obj 1\\
3: 65:1 181:1 obj 1\\
1: 66:1 obj 1\\
3: 67:1 166:1 obj 1\\
3: 67:1 174:1 obj 1\\
3: 68:1 167:1 obj 1\\
2: 70:1 172:1 obj 1\\
3: 70:1 173:1 obj 1\\
2: 71:1 183:1 obj 1\\
4: 72:1 172:1 obj 1\\
4: 73:1 160:1 obj 1\\
2: 74:1 164:1 obj 1\\
2: 74:1 169:1 obj 1\\
2: 75:1 158:1 obj 1\\
1: 75:1 186:1 obj 1\\
1: 77:1 obj 1\\
1: 78:1 obj 1\\
1: 78:1 161:1 obj 1\\
2: 79:1 155:1 obj 1\\
2: 80:1 157:1 obj 1\\
1: 80:1 176:1 obj 1\\
1: 81:1 obj 1\\
3: 82:1 178:1 obj 1\\
2: 83:1 151:1 obj 1\\
2: 83:1 153:1 obj 1\\
2: 83:1 154:1 obj 1\\
3: 84:1 159:1 obj 1\\
2: 84:1 164:1 obj 1\\
1: 85:1 163:1 obj 1\\
2: 85:1 170:1 obj 1\\
1: 86:1 obj 1\\
1: 86:1 180:1 obj 1\\
2: 88:1 154:1 obj 1\\
1: 88:1 155:1 obj 1\\
1: 89:1 149:1 obj 1\\
2: 89:1 155:1 obj 1\\
3: 90:1 145:1 obj 1\\
1: 91:1 146:1 obj 1\\
5: 91:1 148:1 obj 1\\
0.3333333333333335: 92:1 143:1 obj 1\\
3: 92:1 149:1 obj 1\\
2.666666666666667: 93:1 143:1 obj 1\\
3: 93:1 144:1 obj 1\\
0.3333333333333334: 93:1 225:2 obj 1\\
2: 94:1 152:1 obj 1\\
1: 94:1 162:1 obj 1\\
1: 94:1 165:1 obj 1\\
0.6666666666666667: 95:1 obj 1\\
1: 95:1 141:1 obj 1\\
1: 96:1 140:1 obj 1\\
2: 96:1 183:1 obj 1\\
4: 97:1 137:1 obj 1\\
1: 98:1 138:1 obj 1\\
1: 100:1 147:1 obj 1\\
2: 100:1 156:1 obj 1\\
2: 100:1 188:1 obj 1\\
3: 101:1 175:1 obj 1\\
1: 102:1 168:1 obj 1\\
2: 103:1 135:1 obj 1\\
1: 103:1 139:1 obj 1\\
2: 103:1 142:1 obj 1\\
1: 103:1 165:1 obj 1\\
2: 104:1 132:1 obj 1\\
2: 104:1 134:1 obj 1\\
2: 104:1 150:1 obj 1\\
2: 106:1 133:1 obj 1\\
2: 106:1 186:1 obj 1\\
3: 107:1 130:1 obj 1\\
1: 107:1 136:1 obj 1\\
1: 114:1 123:1 obj 1\\
2: 115:1 121:1 obj 1\\
4: 116:1 125:1 obj 1\\
1: 117:1 123:1 obj 1\\
1: 117:2 obj 1\\
2: 118:2 obj 1\\
2: 119:2 obj 1\\
1: 120:1 126:1 obj 1\\
2: 120:2 obj 1\\
0.5: 121:2 obj 1\\
1: 122:2 obj 1\\
1: 213:-1 obj 0\\
0.6666666666666661: 229:-1 obj 0\\
1: 100:1 137:1 obj 1\\
2: 116:1 119:1 obj 1\\
1: 118:1 127:1 obj 1\\
1: 87:1 147:1 obj 1\\
2: 30:1 225:1 obj 1\\
2: 39:1 194:1 obj 1\\
1: 57:1 182:1 obj 1\\
1: 69:1 187:1 obj 1\\
1: 76:1 173:1 obj 1\\
1: 1:1 231:1 obj 1\\
1: 10:1 222:1 obj 1\\
1: 14:1 225:1 obj 1\\
2: 97:1 146:1 obj 1\\
1: 102:1 134:1 obj 1\\
3: 112:1 124:1 obj 1\\
2: 113:1 127:1 obj 1\\
1: 105:1 131:1 obj 1\\
2: 107:1 128:1 obj 1\\
2: 109:1 126:1 obj 1\\
2: 110:1 125:1 obj 1\\
1: 111:1 124:1 obj 1\\
1: 113:1 121:1 obj 1\\
0.6666666666666665: 92:1 228:1 232:1 obj 1\\
1: 98:1 136:1 obj 1\\
1: 99:1 136:1 obj 1\\
1: 106:1 129:1 obj 1\\
1: 108:1 127:1 obj 1\\
0.3333333333333333: 95:1 225:1 228:1 obj 1\\



